Solving original (integer) problem with strategy gdp.hull...
--- Job model.gms Start 02/16/26 13:56:04 52.2.0 d8e408be LEX-LEG x86 64bit/Linux
--- Applying:
    /package/gams/52.2/gmsprmun.txt
--- GAMS Parameters defined
    Input /local/scratch/a/sgusev/repos/k_means/data/gams_scip_gdp.hull/no_mode/2026-02-16_13-56-04/original/model.gms
    Output /local/scratch/a/sgusev/repos/k_means/data/gams_scip_gdp.hull/no_mode/2026-02-16_13-56-04/original/output.lst
    ScrDir /local/scratch/a/sgusev/repos/k_means/data/gams_scip_gdp.hull/no_mode/2026-02-16_13-56-04/original/225a/
    SysDir /package/gams/52.2/
    CurDir /local/scratch/a/sgusev/repos/k_means/data/gams_scip_gdp.hull/no_mode/2026-02-16_13-56-04/original/
    LogOption 3
    AppendLog 1
Licensee: David Bernal / SECQUOIA Research Group         G251008+0003Ac-GEN
          Purdue University, Davidson School of Chemical EngineeringDCE4838
          225a/gamslice.dat
          5a82958a-fbca-4a23
          node:66820903 mem:995 cores:48 ipport:41677 v:2                  
          Evaluation license: Not for commercial or production use
          The time-limited license stops working on : Jun 30, 2027
System information: 48 physical cores and 995 Gb physical memory detected
GAMS 52.2.0   Copyright (C) 1987-2025 GAMS Development. All rights reserved
--- Starting compilation
--- model.gms(4580) 2 Mb
--- $echo File /local/scratch/a/sgusev/repos/k_means/data/gams_scip_gdp.hull/no_mode/2026-02-16_13-56-04/original/scip.opt
--- model.gms(6716) 2 Mb
--- Starting execution: elapsed 0:00:00.023
--- model.gms(4590) 3 Mb
--- Generating MINLP model GAMS_MODEL
--- model.gms(4594) 6 Mb
---   1,397 rows  672 columns  3,401 non-zeroes
---   3,200 nl-code  400 nl-non-zeroes
---   80 discrete-columns
--- Range statistics (absolute non-zero finite values)
--- RHS       [min, max] : [ 1.968E-05, 1.000E+00] - Zero values observed as well
--- Bound     [min, max] : [ 1.000E+00, 9.600E+01] - Zero values observed as well
--- Matrix    [min, max] : [ 5.692E-02, 9.600E+01]
--- model.gms(4594) 4 Mb
--- Executing SCIP (Solvelink=5): elapsed 0:00:00.030

SCIP             52.2.0 d8e408be Dec 8, 2025           LEG x86 64bit/Linux    
SCIP version 9.2.4 (a94f778ac8)
Copyright (c) 2002-2025 Zuse Institute Berlin (ZIB)

External libraries: 
  CPLEX 22.1.2.0       Linear Programming Solver developed by IBM (www.cplex.com)
  CppAD 20180000.0     Algorithmic Differentiation of C++ algorithms developed by B. Bell (github.com/coin-or/CppAD)
  PaPILO 2.4.4         parallel presolve for integer and linear optimization (github.com/scipopt/papilo) (built with TBB) [GitHash: 7c826d50]
  Nauty 2.8.9          Computing Graph Automorphism Groups by Brendan D. McKay (users.cecs.anu.edu.au/~bdm/nauty)
  sassy 1.1            Symmetry preprocessor by Markus Anders (github.com/markusa4/sassy)
  Ipopt 3.14.19        Interior Point Optimizer developed by A. Waechter et.al. (github.com/coin-or/Ipopt)

reading option file /local/scratch/a/sgusev/repos/k_means/data/gams_scip_gdp.hull/no_mode/2026-02-16_13-56-04/original/scip.opt
non-default parameter settings:
limits/time = 300
limits/gap = 1e-06
limits/absgap = 1e-10
lp/threads = 1
misc/printreason = FALSE
numerics/dualfeastol = 1e-06
parallel/maxnthreads = 1
nlpi/ipopt/linear_solver = "ma27"
nlpi/ipopt/linear_system_scaling = "mc19"

original problem has 671 variables (80 bin, 0 int, 591 cont) and 1396 constraints

all 1 solutions given by solution candidate storage are infeasible

presolving:
(round 1, fast)       16 del vars, 0 del conss, 0 add conss, 0 chg bounds, 0 chg sides, 0 chg coeffs, 0 upgd conss, 0 impls, 16 clqs
(round 2, fast)       16 del vars, 0 del conss, 0 add conss, 0 chg bounds, 16 chg sides, 0 chg coeffs, 0 upgd conss, 0 impls, 16 clqs
(round 3, exhaustive) 16 del vars, 0 del conss, 0 add conss, 0 chg bounds, 16 chg sides, 0 chg coeffs, 1056 upgd conss, 0 impls, 16 clqs
   (0.1s) probing cycle finished: starting next cycle
   (0.1s) symmetry computation started: requiring (bin +, int +, cont +), (fixed: bin -, int -, cont -)
   (0.1s) no symmetry present (symcode time: 0.00)
presolving (4 rounds: 4 fast, 2 medium, 2 exhaustive):
 16 deleted vars, 0 deleted constraints, 0 added constraints, 0 tightened bounds, 0 added holes, 16 changed sides, 0 changed coefficients
 3280 implications, 16 cliques
presolved problem has 655 variables (80 bin, 0 int, 0 impl, 575 cont) and 1396 constraints
   1040 constraints of type <varbound>
     16 constraints of type <setppc>
    260 constraints of type <linear>
     80 constraints of type <nonlinear>
Presolving Time: 0.10

 time | node  | left  |LP iter|LP it/n|mem/heur|mdpt |vars |cons |rows |cuts |sepa|confs|strbr|  dualbound   | primalbound  |  gap   | compl. 
  0.2s|     1 |     0 |  1056 |     - |    25M |   0 |2335 |1396 |3776 |   0 |  0 |   0 |   0 | 0.000000e+00 |      --      |    Inf | unknown
p 0.3s|     1 |     0 |  1161 |     - |  clique|   0 |2335 |1396 |3776 |   0 |  0 |   0 |   0 | 0.000000e+00 | 1.466913e+01 |    Inf | unknown
  0.3s|     1 |     0 |  1422 |     - |    27M |   0 |2335 |1396 |3862 |  86 |  1 |   0 |   0 | 0.000000e+00 | 1.466913e+01 |    Inf | unknown
  0.3s|     1 |     0 |  1422 |     - |    27M |   0 |2335 |1396 |3846 |  86 |  1 |   0 |   0 | 0.000000e+00 | 1.466913e+01 |    Inf | unknown
  0.3s|     1 |     0 |  1597 |     - |    27M |   0 |2335 |1396 |3918 | 158 |  2 |   0 |   0 | 0.000000e+00 | 1.466913e+01 |    Inf | unknown
  0.4s|     1 |     0 |  1818 |     - |    28M |   0 |2335 |1396 |4001 | 241 |  3 |   0 |   0 | 0.000000e+00 | 1.466913e+01 |    Inf | unknown
  0.4s|     1 |     0 |  2031 |     - |    28M |   0 |2335 |1396 |4085 | 325 |  4 |   0 |   0 | 0.000000e+00 | 1.466913e+01 |    Inf | unknown
  0.5s|     1 |     0 |  2240 |     - |    29M |   0 |2335 |1396 |4181 | 421 |  5 |   0 |   0 | 0.000000e+00 | 1.466913e+01 |    Inf | unknown
  0.5s|     1 |     0 |  2393 |     - |    29M |   0 |2335 |1396 |4238 | 478 |  6 |   0 |   0 | 0.000000e+00 | 1.466913e+01 |    Inf | unknown
  0.5s|     1 |     0 |  2716 |     - |    30M |   0 |2335 |1396 |4288 | 528 |  7 |   0 |   0 | 0.000000e+00 | 1.466913e+01 |    Inf | unknown
  0.6s|     1 |     0 |  2880 |     - |    30M |   0 |2335 |1396 |4350 | 590 |  8 |   0 |   0 | 0.000000e+00 | 1.466913e+01 |    Inf | unknown
  0.6s|     1 |     0 |  3174 |     - |    31M |   0 |2335 |1396 |4420 | 660 |  9 |   0 |   0 | 0.000000e+00 | 1.466913e+01 |    Inf | unknown
  0.6s|     1 |     0 |  3295 |     - |    31M |   0 |2335 |1396 |4479 | 719 | 10 |   0 |   0 | 0.000000e+00 | 1.466913e+01 |    Inf | unknown
  0.7s|     1 |     0 |  3394 |     - |    32M |   0 |2335 |1396 |4521 | 761 | 11 |   0 |   0 | 0.000000e+00 | 1.466913e+01 |    Inf | unknown
  5.8s|     1 |     0 | 63523 |     - |    32M |   0 |2335 |1380 |4521 | 761 | 11 |   0 |   0 | 0.000000e+00 | 1.466913e+01 |    Inf | unknown
 time | node  | left  |LP iter|LP it/n|mem/heur|mdpt |vars |cons |rows |cuts |sepa|confs|strbr|  dualbound   | primalbound  |  gap   | compl. 
  5.8s|     1 |     0 | 63708 |     - |    32M |   0 |2335 |1380 |4559 | 799 | 12 |   0 |   0 | 0.000000e+00 | 1.466913e+01 |    Inf | unknown
  5.8s|     1 |     0 | 63910 |     - |    33M |   0 |2335 |1380 |4600 | 840 | 13 |   0 |   0 | 0.000000e+00 | 1.466913e+01 |    Inf | unknown
  5.9s|     1 |     0 | 64059 |     - |    33M |   0 |2335 |1380 |4659 | 899 | 14 |   0 |   0 | 0.000000e+00 | 1.466913e+01 |    Inf | unknown
  5.9s|     1 |     0 | 64185 |     - |    34M |   0 |2335 |1380 |4703 | 943 | 15 |   0 |   0 | 0.000000e+00 | 1.466913e+01 |    Inf | unknown
  5.9s|     1 |     0 | 64258 |     - |    35M |   0 |2335 |1380 |4758 | 998 | 16 |   0 |   0 | 0.000000e+00 | 1.466913e+01 |    Inf | unknown
  6.0s|     1 |     0 | 64526 |     - |    35M |   0 |2335 |1380 |4798 |1038 | 17 |   0 |   0 | 0.000000e+00 | 1.466913e+01 |    Inf | unknown
  6.0s|     1 |     0 | 64609 |     - |    36M |   0 |2335 |1380 |4839 |1079 | 18 |   0 |   0 | 0.000000e+00 | 1.466913e+01 |    Inf | unknown
  6.0s|     1 |     0 | 64653 |     - |    36M |   0 |2335 |1380 |4887 |1127 | 19 |   0 |   0 | 0.000000e+00 | 1.466913e+01 |    Inf | unknown
  6.0s|     1 |     0 | 64684 |     - |    37M |   0 |2335 |1380 |4925 |1165 | 20 |   0 |   0 | 0.000000e+00 | 1.466913e+01 |    Inf | unknown
  6.1s|     1 |     0 | 64720 |     - |    37M |   0 |2335 |1380 |4965 |1205 | 21 |   0 |   0 | 0.000000e+00 | 1.466913e+01 |    Inf | unknown
  6.1s|     1 |     0 | 64750 |     - |    37M |   0 |2335 |1380 |2529 |1240 | 22 |   0 |   0 | 0.000000e+00 | 1.466913e+01 |    Inf | unknown
  6.1s|     1 |     0 | 64767 |     - |    37M |   0 |2335 |1380 |2552 |1263 | 23 |   0 |   0 | 0.000000e+00 | 1.466913e+01 |    Inf | unknown
  6.1s|     1 |     0 | 64780 |     - |    37M |   0 |2335 |1380 |2567 |1278 | 24 |   0 |   0 | 0.000000e+00 | 1.466913e+01 |    Inf | unknown
L 7.4s|     1 |     0 | 67961 |     - |    rens|   0 |2335 |1380 |2567 |1278 | 24 |   0 |   0 | 0.000000e+00 | 9.924202e+00 |    Inf | unknown
  7.9s|     1 |     0 | 67961 |     - |    40M |   0 |2335 |1380 |2567 |1278 | 24 |   0 |   0 | 0.000000e+00 | 9.924202e+00 |    Inf | unknown
 time | node  | left  |LP iter|LP it/n|mem/heur|mdpt |vars |cons |rows |cuts |sepa|confs|strbr|  dualbound   | primalbound  |  gap   | compl. 
  7.9s|     1 |     0 | 67971 |     - |    40M |   0 |2335 |1380 |2579 |1290 | 25 |   0 |   0 | 0.000000e+00 | 9.924202e+00 |    Inf | unknown
  7.9s|     1 |     0 | 67976 |     - |    40M |   0 |2335 |1380 |2579 |1290 | 26 |   0 |   1 | 0.000000e+00 | 9.924202e+00 |    Inf | unknown
  7.9s|     1 |     0 | 67999 |     - |    40M |   0 |2335 |1380 |2591 |1302 | 27 |   0 |   1 | 0.000000e+00 | 9.924202e+00 |    Inf | unknown
  7.9s|     1 |     0 | 68004 |     - |    41M |   0 |2335 |1380 |2360 |1304 | 28 |   0 |   1 | 0.000000e+00 | 9.924202e+00 |    Inf | unknown
  7.9s|     1 |     0 | 68010 |     - |    41M |   0 |2335 |1380 |2360 |1304 | 28 |   0 |   2 | 0.000000e+00 | 9.924202e+00 |    Inf | unknown
  7.9s|     1 |     0 | 68021 |     - |    41M |   0 |2335 |1380 |2370 |1314 | 29 |   0 |   2 | 0.000000e+00 | 9.924202e+00 |    Inf | unknown
  7.9s|     1 |     0 | 68022 |     - |    41M |   0 |2335 |1380 |2371 |1315 | 30 |   0 |   2 | 0.000000e+00 | 9.924202e+00 |    Inf | unknown
  7.9s|     1 |     0 | 68022 |     - |    41M |   0 |2335 |1380 |2371 |1315 | 30 |   0 |   3 | 0.000000e+00 | 9.924202e+00 |    Inf | unknown
  7.9s|     1 |     0 | 68028 |     - |    41M |   0 |2335 |1380 |2378 |1322 | 31 |   0 |   3 | 0.000000e+00 | 9.924202e+00 |    Inf | unknown
  7.9s|     1 |     0 | 68029 |     - |    41M |   0 |2335 |1380 |2379 |1323 | 32 |   0 |   3 | 0.000000e+00 | 9.924202e+00 |    Inf | unknown
  8.0s|     1 |     0 | 68030 |     - |    41M |   0 |2335 |1380 |2207 |1323 | 32 |   0 |   4 | 0.000000e+00 | 9.924202e+00 |    Inf | unknown
  8.0s|     1 |     0 | 68038 |     - |    41M |   0 |2335 |1380 |2215 |1331 | 33 |   0 |   4 | 0.000000e+00 | 9.924202e+00 |    Inf | unknown
  8.0s|     1 |     0 | 68044 |     - |    41M |   0 |2335 |1380 |2215 |1331 | 34 |   0 |   5 | 0.000000e+00 | 9.924202e+00 |    Inf | unknown
  8.0s|     1 |     0 | 68066 |     - |    41M |   0 |2335 |1380 |2225 |1341 | 35 |   0 |   5 | 0.000000e+00 | 9.924202e+00 |    Inf | unknown
  8.0s|     1 |     0 | 68069 |     - |    41M |   0 |2335 |1380 |2228 |1344 | 36 |   0 |   5 | 0.000000e+00 | 9.924202e+00 |    Inf | unknown
 time | node  | left  |LP iter|LP it/n|mem/heur|mdpt |vars |cons |rows |cuts |sepa|confs|strbr|  dualbound   | primalbound  |  gap   | compl. 
  8.0s|     1 |     0 | 68069 |     - |    41M |   0 |2335 |1380 |2228 |1344 | 36 |   0 |   6 | 0.000000e+00 | 9.924202e+00 |    Inf | unknown
  8.0s|     1 |     0 | 68082 |     - |    41M |   0 |2335 |1380 |2244 |1360 | 37 |   0 |   6 | 0.000000e+00 | 9.924202e+00 |    Inf | unknown
  8.0s|     1 |     0 | 68083 |     - |    41M |   0 |2335 |1380 |2209 |1360 | 38 |   0 |   7 | 0.000000e+00 | 9.924202e+00 |    Inf | unknown
  8.0s|     1 |     0 | 68089 |     - |    41M |   0 |2335 |1380 |2219 |1370 | 39 |   0 |   7 | 0.000000e+00 | 9.924202e+00 |    Inf | unknown
  8.0s|     1 |     0 | 68090 |     - |    41M |   0 |2335 |1380 |2219 |1370 | 40 |   0 |   8 | 0.000000e+00 | 9.924202e+00 |    Inf | unknown
  8.0s|     1 |     0 | 68101 |     - |    41M |   0 |2335 |1380 |2230 |1381 | 41 |   0 |   8 | 0.000000e+00 | 9.924202e+00 |    Inf | unknown
  8.1s|     1 |     0 | 68103 |     - |    41M |   0 |2335 |1380 |2230 |1381 | 42 |   0 |   9 | 0.000000e+00 | 9.924202e+00 |    Inf | unknown
  8.1s|     1 |     0 | 68111 |     - |    41M |   0 |2335 |1380 |2241 |1392 | 43 |   0 |   9 | 0.000000e+00 | 9.924202e+00 |    Inf | unknown
  8.1s|     1 |     0 | 68113 |     - |    41M |   0 |2335 |1380 |2218 |1392 | 44 |   0 |  10 | 0.000000e+00 | 9.924202e+00 |    Inf | unknown
  8.1s|     1 |     0 | 68123 |     - |    41M |   0 |2335 |1380 |2230 |1404 | 45 |   0 |  10 | 0.000000e+00 | 9.924202e+00 |    Inf | unknown
  8.1s|     1 |     0 | 68126 |     - |    41M |   0 |2335 |1380 |2230 |1404 | 46 |   0 |  11 | 0.000000e+00 | 9.924202e+00 |    Inf | unknown
  8.1s|     1 |     0 | 68153 |     - |    41M |   0 |2335 |1380 |2243 |1417 | 47 |   0 |  11 | 0.000000e+00 | 9.924202e+00 |    Inf | unknown
  8.1s|     1 |     0 | 68168 |     - |    41M |   0 |2335 |1380 |2253 |1427 | 48 |   0 |  11 | 0.000000e+00 | 9.924202e+00 |    Inf | unknown
  8.1s|     1 |     2 | 68168 |     - |    41M |   0 |2335 |1380 |2253 |1427 | 48 |   0 |  11 | 0.000000e+00 | 9.924202e+00 |    Inf | unknown
d 8.7s|    27 |    22 | 73671 |2654.6 |fracdivi|   9 |2335 |1380 |2483 |4142 |  2 |   0 |  11 | 0.000000e+00 | 9.356166e+00 |    Inf |   2.44%
 time | node  | left  |LP iter|LP it/n|mem/heur|mdpt |vars |cons |rows |cuts |sepa|confs|strbr|  dualbound   | primalbound  |  gap   | compl. 
d 9.5s|    43 |    36 | 75789 |1693.8 |nlpdivin|  17 |2335 |1380 |2747 |   0 |  9 |   0 |  15 | 0.000000e+00 | 8.660105e+00 |    Inf |   2.51%
d11.2s|    84 |    73 | 85625 | 975.6 |nlpdivin|  17 |2335 |1380 |2759 |   0 |  7 |   0 |  36 | 0.000000e+00 | 7.950697e+00 |    Inf |   2.68%
 11.9s|   100 |    87 | 88612 | 848.1 |    52M |  17 |2335 |1380 |2573 |  12k| 11 |   0 |  36 | 0.000000e+00 | 7.950697e+00 |    Inf |   2.78%
L15.0s|   184 |   165 |103680 | 541.1 |    gins|  19 |2335 |1380 |2562 |  23k|  2 |   0 |  36 | 0.000000e+00 | 7.390883e+00 |    Inf |   2.85%
 15.5s|   200 |   177 |105763 | 508.1 |    58M |  19 |2335 |1380 |2438 |  24k|  2 |   0 |  43 | 0.000000e+00 | 7.390883e+00 |    Inf |   2.87%
 19.7s|   300 |   261 |123985 | 399.1 |    70M |  26 |2335 |1380 |2603 |  36k|  2 |   0 |  67 | 0.000000e+00 | 7.390883e+00 |    Inf |   3.11%
L24.5s|   384 |   335 |138120 | 348.5 |crossove|  27 |2335 |1380 |2650 |  45k| 10 |   0 |  82 | 0.000000e+00 | 7.036212e+00 |    Inf |   9.65%
 25.0s|   400 |   349 |141731 | 343.6 |    77M |  27 |2335 |1380 |2435 |  47k|  2 |   0 |  82 | 0.000000e+00 | 7.036212e+00 |    Inf |  10.86%
 28.3s|   500 |   441 |159338 | 310.0 |    84M |  27 |2335 |1380 |2422 |  58k|  2 |   0 | 113 | 0.000000e+00 | 7.036212e+00 |    Inf |  11.62%
 31.6s|   600 |   539 |180719 | 293.9 |    91M |  27 |2335 |1380 |2891 |  70k|  5 |   0 | 121 | 0.000000e+00 | 7.036212e+00 |    Inf |  11.72%
L34.1s|   684 |   611 |197366 | 282.2 |    gins|  27 |2335 |1380 |2549 |  80k|  2 |   0 | 134 | 0.000000e+00 | 6.524861e+00 |    Inf |  11.93%
L34.2s|   684 |   611 |197366 | 282.2 |    gins|  27 |2335 |1380 |2549 |  80k|  2 |   0 | 134 | 0.000000e+00 | 6.441371e+00 |    Inf |  11.93%
L34.3s|   684 |   611 |197366 | 282.2 |    gins|  27 |2335 |1380 |2549 |  80k|  2 |   0 | 134 | 0.000000e+00 | 5.698617e+00 |    Inf |  11.93%
 34.8s|   700 |   625 |199826 | 279.2 |    97M |  27 |2335 |1380 |2679 |  82k|  8 |   0 | 134 | 0.000000e+00 | 5.698617e+00 |    Inf |  12.17%
 38.1s|   800 |   715 |219104 | 268.4 |   107M |  27 |2335 |1380 |2748 |  94k|  8 |   0 | 136 | 0.000000e+00 | 5.698617e+00 |    Inf |  12.25%
 time | node  | left  |LP iter|LP it/n|mem/heur|mdpt |vars |cons |rows |cuts |sepa|confs|strbr|  dualbound   | primalbound  |  gap   | compl. 
 41.4s|   900 |   805 |236750 | 258.2 |   114M |  27 |2335 |1380 |2870 | 106k| 11 |   0 | 136 | 0.000000e+00 | 5.698617e+00 |    Inf |  12.35%
 45.3s|  1000 |   895 |257987 | 253.6 |   120M |  27 |2335 |1380 |2691 | 118k|  3 |   0 | 144 | 0.000000e+00 | 5.698617e+00 |    Inf |  13.05%
 48.5s|  1100 |   981 |277801 | 248.5 |   126M |  27 |2335 |1380 |2863 | 130k|  7 |   0 | 146 | 0.000000e+00 | 5.698617e+00 |    Inf |  13.15%
 51.8s|  1200 |  1075 |297704 | 244.4 |   132M |  27 |2335 |1380 |2616 | 141k|  2 |   0 | 156 | 0.000000e+00 | 5.698617e+00 |    Inf |  13.31%
 55.5s|  1300 |  1173 |322580 | 244.7 |   137M |  27 |2335 |1380 |2792 | 155k|  7 |   0 | 159 | 0.000000e+00 | 5.698617e+00 |    Inf |  13.89%
 59.0s|  1400 |  1269 |343290 | 242.1 |   141M |  27 |2335 |1380 |2902 | 168k|  9 |   0 | 162 | 0.000000e+00 | 5.698617e+00 |    Inf |  13.89%
 62.7s|  1500 |  1369 |362677 | 238.8 |   143M |  29 |2335 |1380 |2825 | 180k|  5 |   0 | 163 | 0.000000e+00 | 5.698617e+00 |    Inf |  13.89%
 66.5s|  1600 |  1469 |382736 | 236.5 |   148M |  29 |2335 |1380 |2818 | 193k| 12 |   0 | 164 | 0.000000e+00 | 5.698617e+00 |    Inf |  13.89%
 70.1s|  1700 |  1569 |402956 | 234.4 |   152M |  29 |2335 |1380 |2779 | 204k|  2 |   0 | 164 | 0.000000e+00 | 5.698617e+00 |    Inf |  13.89%
 73.7s|  1800 |  1667 |424590 | 233.4 |   156M |  31 |2335 |1380 |2614 | 214k|  2 |   0 | 174 | 0.000000e+00 | 5.698617e+00 |    Inf |  13.89%
 77.0s|  1900 |  1765 |445177 | 232.0 |   160M |  31 |2335 |1380 |2683 | 226k|  3 |   0 | 176 | 0.000000e+00 | 5.698617e+00 |    Inf |  13.89%
 80.7s|  2000 |  1863 |474031 | 234.8 |   166M |  31 |2335 |1380 |2846 | 240k|  7 |   0 | 179 | 0.000000e+00 | 5.698617e+00 |    Inf |  13.90%
 84.1s|  2100 |  1955 |493990 | 233.1 |   169M |  31 |2335 |1380 |2897 | 253k|  4 |   0 | 179 | 0.000000e+00 | 5.698617e+00 |    Inf |  13.90%
 88.2s|  2200 |  2047 |511581 | 230.5 |   172M |  32 |2335 |1380 |2924 | 263k| 13 |   0 | 184 | 0.000000e+00 | 5.698617e+00 |    Inf |  13.90%
 91.1s|  2300 |  2117 |526277 | 226.9 |   175M |  32 |2335 |1380 |2574 | 271k|  3 |   0 | 184 | 0.000000e+00 | 5.698617e+00 |    Inf |  13.92%
 time | node  | left  |LP iter|LP it/n|mem/heur|mdpt |vars |cons |rows |cuts |sepa|confs|strbr|  dualbound   | primalbound  |  gap   | compl. 
 94.0s|  2400 |  2201 |546233 | 225.8 |   183M |  32 |2335 |1380 |2730 | 283k| 10 |   0 | 188 | 0.000000e+00 | 5.698617e+00 |    Inf |  13.97%
 97.0s|  2500 |  2283 |570588 | 226.5 |   185M |  32 |2335 |1380 |2698 | 294k|  2 |   0 | 190 | 0.000000e+00 | 5.698617e+00 |    Inf |  14.01%
  100s|  2600 |  2371 |587012 | 224.1 |   189M |  32 |2335 |1380 |2743 | 304k|  9 |   0 | 191 | 0.000000e+00 | 5.698617e+00 |    Inf |  14.03%
  103s|  2700 |  2457 |606833 | 223.1 |   192M |  32 |2335 |1380 |2547 | 317k|  2 |   0 | 192 | 0.000000e+00 | 5.698617e+00 |    Inf |  14.05%
  107s|  2800 |  2543 |629074 | 223.1 |   196M |  32 |2335 |1380 |2904 | 330k|  8 |   0 | 192 | 0.000000e+00 | 5.698617e+00 |    Inf |  14.06%
  110s|  2900 |  2625 |648022 | 221.9 |   201M |  32 |2335 |1380 |2835 | 342k|  7 |   0 | 197 | 0.000000e+00 | 5.698617e+00 |    Inf |  14.10%
  113s|  3000 |  2719 |668794 | 221.5 |   205M |  32 |2335 |1380 |2853 | 354k| 10 |   0 | 198 | 0.000000e+00 | 5.698617e+00 |    Inf |  14.10%
  117s|  3100 |  2809 |688478 | 220.7 |   208M |  32 |2335 |1380 |2703 | 366k|  2 |   0 | 198 | 0.000000e+00 | 5.698617e+00 |    Inf |  14.13%
  120s|  3200 |  2897 |708297 | 220.0 |   213M |  32 |2335 |1380 |   0 | 378k|  0 |   0 | 204 | 0.000000e+00 | 5.698617e+00 |    Inf |  14.14%
  123s|  3300 |  2987 |729887 | 219.8 |   217M |  32 |2335 |1380 |2887 | 390k|  7 |   0 | 211 | 0.000000e+00 | 5.698617e+00 |    Inf |  14.14%
  127s|  3400 |  3081 |752966 | 220.2 |   219M |  37 |2335 |1380 |2954 | 401k| 11 |   0 | 221 | 0.000000e+00 | 5.698617e+00 |    Inf |  14.15%
  130s|  3500 |  3171 |777643 | 220.9 |   224M |  37 |2335 |1380 |2764 | 413k|  3 |   0 | 227 | 0.000000e+00 | 5.698617e+00 |    Inf |  14.15%
  133s|  3600 |  3263 |798975 | 220.7 |   230M |  37 |2335 |1380 |2923 | 426k|  8 |   0 | 227 | 0.000000e+00 | 5.698617e+00 |    Inf |  14.15%
  136s|  3700 |  3349 |818806 | 220.1 |   232M |  37 |2335 |1380 |2754 | 438k|  3 |   0 | 227 | 0.000000e+00 | 5.698617e+00 |    Inf |  14.15%
  139s|  3800 |  3439 |838996 | 219.6 |   237M |  37 |2335 |1380 |2674 | 451k|  2 |   0 | 229 | 0.000000e+00 | 5.698617e+00 |    Inf |  14.15%
 time | node  | left  |LP iter|LP it/n|mem/heur|mdpt |vars |cons |rows |cuts |sepa|confs|strbr|  dualbound   | primalbound  |  gap   | compl. 
  143s|  3900 |  3517 |864560 | 220.5 |   239M |  37 |2335 |1380 |2598 | 462k|  2 |   0 | 240 | 0.000000e+00 | 5.698617e+00 |    Inf |  14.15%
  146s|  4000 |  3603 |885153 | 220.2 |   244M |  37 |2335 |1380 |2947 | 475k|  7 |   0 | 245 | 0.000000e+00 | 5.698617e+00 |    Inf |  14.16%
  149s|  4100 |  3689 |904909 | 219.6 |   246M |  37 |2335 |1380 |2885 | 486k|  2 |   0 | 248 | 0.000000e+00 | 5.698617e+00 |    Inf |  14.16%
  153s|  4200 |  3763 |925806 | 219.4 |   249M |  37 |2335 |1380 |3192 | 497k| 10 |   0 | 248 | 0.000000e+00 | 5.698617e+00 |    Inf |  14.16%
  156s|  4300 |  3845 |949539 | 219.8 |   256M |  37 |2335 |1380 |2817 | 509k|  2 |   0 | 275 | 0.000000e+00 | 5.698617e+00 |    Inf |  14.16%
L 156s|  4305 |  3842 |950395 | 219.7 |    rins|  37 |2335 |1380 |3049 | 509k|  8 |   0 | 275 | 0.000000e+00 | 5.448801e+00 |    Inf |  14.16%
  159s|  4400 |  3923 |970223 | 219.5 |   257M |  37 |2335 |1380 |2767 | 519k|  2 |   0 | 275 | 0.000000e+00 | 5.448801e+00 |    Inf |  14.16%
  163s|  4500 |  4015 |990602 | 219.1 |   264M |  37 |2335 |1380 |2915 | 531k| 11 |   0 | 280 | 0.000000e+00 | 5.448801e+00 |    Inf |  14.16%
L 166s|  4592 |  4034 |  1011k| 219.3 |    alns|  37 |2335 |1380 |2735 | 542k|  2 |   0 | 285 | 0.000000e+00 | 4.912796e+00 |    Inf |  14.17%
L 166s|  4592 |  4034 |  1011k| 219.3 |    alns|  37 |2335 |1380 |2735 | 542k|  2 |   0 | 285 | 0.000000e+00 | 4.912789e+00 |    Inf |  14.17%
  166s|  4600 |  4040 |  1013k| 219.4 |   266M |  37 |2335 |1380 |3007 | 544k|  8 |   0 | 285 | 0.000000e+00 | 4.912789e+00 |    Inf |  14.18%
L 167s|  4635 |  4057 |  1019k| 219.0 |    alns|  37 |2335 |1380 |2728 | 547k|  2 |   0 | 285 | 0.000000e+00 | 4.782290e+00 |    Inf |  14.18%
  170s|  4700 |  4112 |  1032k| 218.7 |   270M |  37 |2335 |1380 |2965 | 555k| 10 |   0 | 285 | 0.000000e+00 | 4.782290e+00 |    Inf |  14.19%
  173s|  4800 |  4186 |  1051k| 218.0 |   271M |  37 |2335 |1380 |2986 | 565k| 11 |   0 | 290 | 0.000000e+00 | 4.782290e+00 |    Inf |  14.23%
  176s|  4900 |  4276 |  1070k| 217.7 |   276M |  37 |2335 |1380 |2846 | 576k|  9 |   0 | 294 | 0.000000e+00 | 4.782290e+00 |    Inf |  14.25%
 time | node  | left  |LP iter|LP it/n|mem/heur|mdpt |vars |cons |rows |cuts |sepa|confs|strbr|  dualbound   | primalbound  |  gap   | compl. 
  179s|  5000 |  4372 |  1093k| 217.8 |   284M |  37 |2335 |1380 |2774 | 589k|  2 |   0 | 308 | 0.000000e+00 | 4.782290e+00 |    Inf |  14.26%
  183s|  5100 |  4468 |  1116k| 218.0 |   287M |  37 |2335 |1380 |2857 | 603k| 10 |   0 | 308 | 0.000000e+00 | 4.782290e+00 |    Inf |  14.26%
  186s|  5200 |  4556 |  1136k| 217.7 |   289M |  37 |2335 |1380 |2805 | 616k|  2 |   0 | 308 | 0.000000e+00 | 4.782290e+00 |    Inf |  14.27%
  193s|  5300 |  4642 |  1162k| 218.4 |   292M |  37 |2335 |1380 |   0 | 628k|  0 |   0 | 308 | 0.000000e+00 | 4.782290e+00 |    Inf |  14.27%
  196s|  5400 |  4732 |  1182k| 218.2 |   296M |  37 |2335 |1380 |2903 | 640k| 12 |   0 | 313 | 0.000000e+00 | 4.782290e+00 |    Inf |  14.30%
  200s|  5500 |  4818 |  1202k| 217.8 |   299M |  37 |2335 |1380 |2600 | 653k|  8 |   0 | 315 | 0.000000e+00 | 4.782290e+00 |    Inf |  14.52%
  203s|  5600 |  4908 |  1222k| 217.6 |   302M |  37 |2335 |1380 |2748 | 665k|  3 |   0 | 319 | 0.000000e+00 | 4.782290e+00 |    Inf |  14.55%
  206s|  5700 |  4998 |  1244k| 217.6 |   307M |  37 |2335 |1380 |2639 | 678k|  2 |   0 | 319 | 0.000000e+00 | 4.782290e+00 |    Inf |  14.56%
  210s|  5800 |  5092 |  1269k| 218.0 |   310M |  37 |2335 |1380 |2807 | 690k| 11 |   0 | 320 | 0.000000e+00 | 4.782290e+00 |    Inf |  14.56%
  214s|  5900 |  5182 |  1293k| 218.5 |   315M |  37 |2335 |1380 |3145 | 702k|  9 |   0 | 328 | 0.000000e+00 | 4.782290e+00 |    Inf |  14.56%
  217s|  6000 |  5266 |  1321k| 219.4 |   318M |  37 |2335 |1380 |2841 | 715k|  9 |   0 | 331 | 0.000000e+00 | 4.782290e+00 |    Inf |  14.68%
  223s|  6100 |  5364 |  1346k| 220.0 |   324M |  37 |2335 |1380 |3099 | 728k| 13 |   0 | 344 | 0.000000e+00 | 4.782290e+00 |    Inf |  14.68%
  226s|  6200 |  5448 |  1368k| 220.0 |   326M |  37 |2335 |1380 |2622 | 741k|  2 |   0 | 344 | 0.000000e+00 | 4.782290e+00 |    Inf |  14.72%
  229s|  6300 |  5536 |  1390k| 220.0 |   330M |  37 |2335 |1380 |2806 | 753k|  6 |   0 | 344 | 0.000000e+00 | 4.782290e+00 |    Inf |  14.72%
  233s|  6400 |  5630 |  1414k| 220.3 |   332M |  37 |2335 |1380 |2970 | 765k|  7 |   0 | 347 | 0.000000e+00 | 4.782290e+00 |    Inf |  14.74%
 time | node  | left  |LP iter|LP it/n|mem/heur|mdpt |vars |cons |rows |cuts |sepa|confs|strbr|  dualbound   | primalbound  |  gap   | compl. 
  236s|  6500 |  5724 |  1432k| 219.7 |   336M |  37 |2335 |1380 |2799 | 777k|  2 |   0 | 351 | 0.000000e+00 | 4.782290e+00 |    Inf |  14.74%
L 238s|  6562 |  5717 |  1446k| 219.7 |    gins|  37 |2335 |1380 |2889 | 785k|  9 |   0 | 353 | 0.000000e+00 | 4.517909e+00 |    Inf |  14.75%
L 239s|  6562 |  5693 |  1446k| 219.7 |    gins|  37 |2335 |1380 |2889 | 785k|  9 |   0 | 353 | 0.000000e+00 | 4.410379e+00 |    Inf |  14.75%
  240s|  6600 |  5727 |  1449k| 219.0 |   338M |  37 |2335 |1380 |   0 | 788k|  0 |   0 | 360 | 0.000000e+00 | 4.410379e+00 |    Inf |  14.76%
  243s|  6700 |  5817 |  1471k| 218.9 |   341M |  37 |2335 |1380 |2785 | 800k|  2 |   0 | 361 | 0.000000e+00 | 4.410379e+00 |    Inf |  14.77%
  247s|  6800 |  5911 |  1492k| 218.9 |   347M |  37 |2335 |1380 |2767 | 813k|  2 |   0 | 363 | 0.000000e+00 | 4.410379e+00 |    Inf |  14.77%
  251s|  6900 |  5999 |  1515k| 219.0 |   350M |  37 |2335 |1380 |2840 | 826k|  2 |   0 | 365 | 0.000000e+00 | 4.410379e+00 |    Inf |  14.77%
  254s|  7000 |  6095 |  1535k| 218.8 |   357M |  37 |2335 |1380 |2811 | 838k|  3 |   0 | 367 | 0.000000e+00 | 4.410379e+00 |    Inf |  14.78%
  258s|  7100 |  6187 |  1556k| 218.6 |   360M |  37 |2335 |1380 |2817 | 851k|  2 |   0 | 368 | 0.000000e+00 | 4.410379e+00 |    Inf |  14.82%
  261s|  7200 |  6285 |  1581k| 219.0 |   364M |  37 |2335 |1380 |2941 | 863k|  3 |   0 | 369 | 0.000000e+00 | 4.410379e+00 |    Inf |  14.83%
  265s|  7300 |  6375 |  1601k| 218.7 |   368M |  37 |2335 |1380 |2850 | 875k|  2 |   0 | 369 | 0.000000e+00 | 4.410379e+00 |    Inf |  14.83%
  269s|  7400 |  6475 |  1623k| 218.8 |   372M |  37 |2335 |1380 |2665 | 889k|  2 |   0 | 370 | 0.000000e+00 | 4.410379e+00 |    Inf |  14.83%
  272s|  7500 |  6569 |  1644k| 218.7 |   376M |  37 |2335 |1380 |3145 | 901k| 10 |   0 | 376 | 0.000000e+00 | 4.410379e+00 |    Inf |  14.84%
  276s|  7600 |  6663 |  1664k| 218.4 |   380M |  37 |2335 |1380 |3103 | 913k|  8 |   0 | 382 | 0.000000e+00 | 4.410379e+00 |    Inf |  14.84%
  280s|  7700 |  6759 |  1686k| 218.5 |   383M |  37 |2335 |1380 |2845 | 925k|  2 |   0 | 386 | 0.000000e+00 | 4.410379e+00 |    Inf |  14.84%
 time | node  | left  |LP iter|LP it/n|mem/heur|mdpt |vars |cons |rows |cuts |sepa|confs|strbr|  dualbound   | primalbound  |  gap   | compl. 
  283s|  7800 |  6847 |  1707k| 218.3 |   385M |  37 |2335 |1380 |2991 | 937k|  4 |   0 | 397 | 0.000000e+00 | 4.410379e+00 |    Inf |  14.85%
  287s|  7900 |  6935 |  1731k| 218.6 |   388M |  37 |2335 |1380 |3013 | 950k| 13 |   0 | 403 | 0.000000e+00 | 4.410379e+00 |    Inf |  14.88%
  291s|  8000 |  7031 |  1757k| 219.2 |   390M |  37 |2335 |1380 |2694 | 963k|  2 |   0 | 419 | 0.000000e+00 | 4.410379e+00 |    Inf |  14.88%
  295s|  8100 |  7125 |  1773k| 218.4 |   393M |  37 |2335 |1380 |2949 | 975k|  8 |   0 | 419 | 0.000000e+00 | 4.410379e+00 |    Inf |  14.88%
  299s|  8200 |  7215 |  1800k| 219.0 |   397M |  37 |2335 |1380 |2874 | 987k|  2 |   0 | 434 | 0.000000e+00 | 4.410379e+00 |    Inf |  14.89%

SCIP Status        : solving was interrupted [time limit reached]
Solving Time (sec) : 300.00
Solving Nodes      : 8227
Primal Bound       : +4.41037922953317e+00 (23 solutions)
Dual Bound         : +0.00000000000000e+00
Gap                : infinite


--- Reading solution for model GAMS_MODEL
***
*** Solver did not provide marginals for model GAMS_MODEL
***
--- Executing after solve: elapsed 0:05:00.365
--- model.gms(4597) 4 Mb
--- model.gms(6716) 6 Mb
--- Putfile results /local/scratch/a/sgusev/repos/k_means/data/gams_scip_gdp.hull/no_mode/2026-02-16_13-56-04/original/results.dat
--- Putfile statresults /local/scratch/a/sgusev/repos/k_means/data/gams_scip_gdp.hull/no_mode/2026-02-16_13-56-04/original/resultsstat.dat
*** Status: Normal completion
--- Job model.gms Stop 02/16/26 14:01:05 elapsed 0:05:00.368
Original problem solved. Time taken: 301.02418065071106 seconds
Original objective value: 4.410379229533164
